lattice_vector 3.1962229999999998 0.0000000000000000 0.0000000000000000 
lattice_vector -1.5981114999999999 2.7680103141601093 0.0000000000000000 
lattice_vector 0.0000000000000000 0.0000000000000000 23.1298299999999983 
atom_frac 0.0000000000000000 0.0000000000000000 0.5000000000000000 Mo
atom_frac 0.6666666667000001 0.3333333332999999 0.4217892221000000 S
atom_frac 0.6666666667000001 0.3333333332999999 0.5782107779000000 S
