POSCAR generated by DeepH-dock 
1.0
  529177210.0  0.0  0.0
  0.0  529177210.0  0.0
  0.0  0.0  529177210.0
Co O H
4 8 8
Cartesian
    9.484902  7.003381  7.847326
    6.940649  7.054695  7.848905
    6.940609  7.054516  5.715466
    9.484862  7.003203  5.716956
    8.18489  5.854607  8.569174
    8.228209  8.219087  8.574136
    5.999386  5.796885  6.782309
    6.052693  8.357138  6.782093
    8.228141  8.218788  4.989991
    8.184822  5.854308  4.995349
    10.366701  5.705467  6.782233
    10.588941  8.125949  6.782026
    8.17258  9.102865  8.210764
    8.170977  4.978093  8.182235
    5.094809  8.337893  6.782112
    5.043392  5.861246  6.782321
    8.172525  9.102626  5.353218
    8.170925  4.977858  5.382435
    11.31737  5.838484  6.782203
    10.382543  9.060321  6.781951
